(declare-fun var0 () String)
(assert (RegexIn var0 (RegexConcat (RegexStar (RegexUnion (RegexPlus (RegexPlus (RegexUnion (RegexPlus (RegexUnion (RegexUnion (RegexStar (RegexStar (RegexUnion (RegexStar (RegexPlus (RegexUnion (RegexStar (RegexUnion (RegexPlus (RegexUnion (Str2Reg "^^^") (Str2Reg "___"))) (RegexUnion (RegexUnion (Str2Reg "```") (Str2Reg "{{{")) (RegexUnion (Str2Reg "||||") (Str2Reg "}}}}"))))) (RegexUnion (RegexPlus (RegexStar (RegexUnion (Str2Reg "~~~~") (Str2Reg "00")))) (RegexStar (RegexStar (RegexUnion (Str2Reg "11111") (Str2Reg "222")))))))) (RegexStar (RegexStar (RegexPlus (RegexPlus (RegexStar (RegexPlus (RegexPlus (Str2Reg "33333"))))))))))) (RegexStar (RegexUnion (RegexPlus (RegexUnion (RegexStar (RegexStar (RegexUnion (RegexUnion (RegexUnion (RegexUnion (Str2Reg "44") (Str2Reg "555")) (RegexPlus (Str2Reg "6666"))) (RegexUnion (RegexStar (Str2Reg "77")) (RegexStar (Str2Reg "8888")))) (RegexPlus (RegexPlus (RegexUnion (Str2Reg "99999") (Str2Reg "aaaa"))))))) (RegexPlus (RegexUnion (RegexUnion (RegexUnion (RegexPlus (RegexPlus (Str2Reg "bbbbb"))) (RegexPlus (RegexStar (Str2Reg "ccccc")))) (RegexPlus (RegexStar (RegexStar (Str2Reg "dd"))))) (RegexUnion (RegexPlus (RegexStar (RegexStar (Str2Reg "eeee")))) (RegexUnion (RegexPlus (RegexPlus (Str2Reg "ffff"))) (RegexUnion (RegexStar (Str2Reg "gggg")) (RegexStar (Str2Reg "hh"))))))))) (RegexPlus (RegexPlus (RegexPlus (RegexUnion (RegexUnion (RegexPlus (RegexStar (RegexStar (Str2Reg "ii")))) (RegexPlus (RegexUnion (RegexUnion (Str2Reg "jj") (Str2Reg "kkkkk")) (RegexUnion (Str2Reg "ll") (Str2Reg "mm"))))) (RegexUnion (RegexUnion (RegexStar (RegexStar (Str2Reg "nn"))) (RegexPlus (RegexStar (Str2Reg "ooo")))) (RegexPlus (RegexUnion (RegexStar (Str2Reg "pp")) (RegexUnion (Str2Reg "qqq") (Str2Reg "rrrrr")))))))))))) (RegexPlus (RegexUnion (RegexUnion (RegexUnion (RegexUnion (RegexStar (RegexStar (RegexUnion (RegexUnion (RegexPlus (RegexStar (Str2Reg "ssss"))) (RegexPlus (RegexUnion (Str2Reg "tt") (Str2Reg "uuuuu")))) (RegexPlus (RegexPlus (RegexStar (Str2Reg "vvvv"))))))) (RegexUnion (RegexPlus (RegexUnion (RegexStar (RegexUnion (RegexUnion (Str2Reg "wwww") (Str2Reg "xxxx")) (RegexUnion (Str2Reg "yyyyy") (Str2Reg "zzzzz")))) (RegexStar (RegexUnion (RegexStar (Str2Reg "AAA")) (RegexPlus (Str2Reg "BBBBB")))))) (RegexPlus (RegexUnion (RegexStar (RegexStar (RegexPlus (Str2Reg "CC")))) (RegexStar (RegexStar (RegexPlus (Str2Reg "DDDD")))))))) (RegexStar (RegexStar (RegexUnion (RegexStar (RegexStar (RegexPlus (RegexStar (Str2Reg "EEE"))))) (RegexPlus (RegexPlus (RegexUnion (RegexStar (Str2Reg "FF")) (RegexStar (Str2Reg "GGGG"))))))))) (RegexPlus (RegexUnion (RegexUnion (RegexPlus (RegexStar (RegexPlus (RegexUnion (RegexPlus (Str2Reg "HHH")) (RegexUnion (Str2Reg "IIII") (Str2Reg "JJJJJ")))))) (RegexPlus (RegexPlus (RegexStar (RegexUnion (RegexPlus (Str2Reg "KKKK")) (RegexPlus (Str2Reg "LLL"))))))) (RegexUnion (RegexStar (RegexPlus (RegexStar (RegexPlus (RegexUnion (Str2Reg "MM") (Str2Reg "NNNN")))))) (RegexPlus (RegexUnion (RegexUnion (RegexUnion (RegexUnion (Str2Reg "OOO") (Str2Reg "PPPPP")) (RegexStar (Str2Reg "QQQQ"))) (RegexPlus (RegexUnion (Str2Reg "RR") (Str2Reg "SSSS")))) (RegexPlus (RegexPlus (RegexStar (Str2Reg "TTT")))))))))) (RegexUnion (RegexStar (RegexUnion (RegexStar (RegexUnion (RegexUnion (RegexPlus (RegexStar (RegexUnion (Str2Reg "UUUUU") (Str2Reg "VV")))) (RegexUnion (RegexStar (RegexUnion (Str2Reg "WW") (Str2Reg "XXX"))) (RegexUnion (RegexStar (Str2Reg "YYYY")) (RegexUnion (Str2Reg "ZZ") (Str2Reg "!!"))))) (RegexPlus (RegexPlus (RegexStar (RegexStar (Str2Reg "\"\"\"\""))))))) (RegexUnion (RegexStar (RegexPlus (RegexStar (RegexStar (RegexStar (Str2Reg "#####")))))) (RegexStar (RegexPlus (RegexPlus (RegexUnion (RegexPlus (Str2Reg "$$")) (RegexPlus (Str2Reg "%%%%"))))))))) (RegexStar (RegexPlus (RegexStar (RegexPlus (RegexStar (RegexUnion (RegexPlus (RegexUnion (Str2Reg "&&") (Str2Reg "'''"))) (RegexStar (RegexUnion (Str2Reg "((((") (Str2Reg "))))")))))))))))))) (RegexUnion (RegexUnion (RegexUnion (RegexPlus (RegexUnion (RegexStar (RegexPlus (RegexStar (RegexPlus (RegexStar (RegexStar (RegexPlus (RegexUnion (Str2Reg "***") (Str2Reg "++"))))))))) (RegexStar (RegexUnion (RegexStar (RegexPlus (RegexPlus (RegexStar (RegexPlus (RegexStar (Str2Reg ",,,,,"))))))) (RegexStar (RegexStar (RegexUnion (RegexStar (RegexStar (RegexPlus (Str2Reg "---")))) (RegexPlus (RegexStar (RegexStar (Str2Reg "....."))))))))))) (RegexStar (RegexStar (RegexUnion (RegexUnion (RegexStar (RegexStar (RegexUnion (RegexStar (RegexUnion (RegexUnion (Str2Reg "/////") (Str2Reg ":::")) (RegexPlus (Str2Reg ";;;;;")))) (RegexUnion (RegexUnion (RegexPlus (Str2Reg "<<<")) (RegexStar (Str2Reg "=="))) (RegexPlus (RegexUnion (Str2Reg ">>>>>") (Str2Reg "??"))))))) (RegexUnion (RegexUnion (RegexUnion (RegexStar (RegexUnion (RegexStar (Str2Reg "@@@@")) (RegexUnion (Str2Reg "[[[[") (Str2Reg "\\\\\\\\")))) (RegexStar (RegexUnion (RegexPlus (Str2Reg "]]]")) (RegexPlus (Str2Reg "^^"))))) (RegexUnion (RegexUnion (RegexStar (RegexStar (Str2Reg "__"))) (RegexUnion (RegexPlus (Str2Reg "````")) (RegexPlus (Str2Reg "{{{{")))) (RegexPlus (RegexStar (RegexStar (Str2Reg "||")))))) (RegexPlus (RegexUnion (RegexStar (RegexStar (RegexPlus (Str2Reg "}}}}}")))) (RegexUnion (RegexStar (RegexStar (Str2Reg "~~~~~"))) (RegexPlus (RegexStar (Str2Reg "00000")))))))) (RegexPlus (RegexUnion (RegexStar (RegexStar (RegexPlus (RegexUnion (RegexUnion (Str2Reg "11") (Str2Reg "22222")) (RegexPlus (Str2Reg "333")))))) (RegexUnion (RegexPlus (RegexUnion (RegexStar (RegexStar (Str2Reg "44"))) (RegexPlus (RegexStar (Str2Reg "55"))))) (RegexPlus (RegexUnion (RegexUnion (RegexStar (Str2Reg "6666")) (RegexUnion (Str2Reg "77") (Str2Reg "88"))) (RegexUnion (RegexUnion (Str2Reg "999") (Str2Reg "aaaaa")) (RegexPlus (Str2Reg "bbb")))))))))))) (RegexStar (RegexUnion (RegexPlus (RegexPlus (RegexUnion (RegexPlus (RegexStar (RegexUnion (RegexStar (RegexStar (RegexStar (Str2Reg "cc")))) (RegexUnion (RegexPlus (RegexStar (Str2Reg "dd"))) (RegexStar (RegexPlus (Str2Reg "eeee"))))))) (RegexPlus (RegexUnion (RegexStar (RegexStar (RegexUnion (RegexUnion (Str2Reg "fff") (Str2Reg "gggg")) (RegexStar (Str2Reg "hhhhh"))))) (RegexStar (RegexStar (RegexStar (RegexStar (Str2Reg "iiiii")))))))))) (RegexUnion (RegexStar (RegexStar (RegexUnion (RegexStar (RegexPlus (RegexPlus (RegexPlus (RegexStar (Str2Reg "jj")))))) (RegexPlus (RegexPlus (RegexPlus (RegexUnion (RegexUnion (Str2Reg "kkkkk") (Str2Reg "ll")) (RegexStar (Str2Reg "mmmm"))))))))) (RegexPlus (RegexPlus (RegexStar (RegexStar (RegexUnion (RegexStar (RegexPlus (RegexStar (Str2Reg "nnn")))) (RegexPlus (RegexStar (RegexPlus (Str2Reg "oooo"))))))))))))) (RegexPlus (RegexPlus (RegexStar (RegexStar (RegexPlus (RegexPlus (RegexPlus (RegexStar (RegexStar (RegexUnion (RegexStar (RegexUnion (Str2Reg "pppp") (Str2Reg "qqqq"))) (RegexPlus (RegexPlus (Str2Reg "rrr"))))))))))))))))) (RegexStar (RegexStar (RegexUnion (RegexUnion (RegexPlus (RegexPlus (RegexStar (RegexUnion (RegexPlus (RegexUnion (RegexPlus (RegexPlus (RegexStar (RegexStar (RegexUnion (RegexUnion (Str2Reg "sss") (Str2Reg "tt")) (RegexPlus (Str2Reg "uu"))))))) (RegexUnion (RegexStar (RegexStar (RegexUnion (RegexStar (RegexStar (Str2Reg "vvvv"))) (RegexStar (RegexStar (Str2Reg "wwww")))))) (RegexPlus (RegexUnion (RegexPlus (RegexUnion (RegexUnion (Str2Reg "xx") (Str2Reg "yyyy")) (RegexUnion (Str2Reg "zzz") (Str2Reg "AA")))) (RegexPlus (RegexPlus (RegexPlus (Str2Reg "BBBB"))))))))) (RegexUnion (RegexPlus (RegexPlus (RegexPlus (RegexStar (RegexStar (RegexStar (RegexPlus (Str2Reg "CCCCC")))))))) (RegexUnion (RegexUnion (RegexUnion (RegexStar (RegexStar (RegexStar (RegexPlus (Str2Reg "DD"))))) (RegexUnion (RegexPlus (RegexPlus (RegexUnion (Str2Reg "EEEE") (Str2Reg "FFFF")))) (RegexUnion (RegexPlus (RegexPlus (Str2Reg "GGGGG"))) (RegexUnion (RegexStar (Str2Reg "HH")) (RegexStar (Str2Reg "II")))))) (RegexUnion (RegexUnion (RegexPlus (RegexPlus (RegexUnion (Str2Reg "JJJ") (Str2Reg "KK")))) (RegexUnion (RegexPlus (RegexStar (Str2Reg "LLLL"))) (RegexPlus (RegexStar (Str2Reg "MMMMM"))))) (RegexPlus (RegexStar (RegexStar (RegexUnion (Str2Reg "NN") (Str2Reg "OOOO"))))))) (RegexStar (RegexStar (RegexStar (RegexUnion (RegexPlus (RegexPlus (Str2Reg "PPPP"))) (RegexUnion (RegexStar (Str2Reg "QQQQQ")) (RegexPlus (Str2Reg "RRRR"))))))))))))) (RegexUnion (RegexUnion (RegexStar (RegexStar (RegexUnion (RegexPlus (RegexPlus (RegexPlus (RegexUnion (RegexStar (RegexStar (RegexUnion (Str2Reg "SSS") (Str2Reg "TTTTT")))) (RegexPlus (RegexPlus (RegexUnion (Str2Reg "UUUU") (Str2Reg "VVV")))))))) (RegexStar (RegexStar (RegexPlus (RegexStar (RegexPlus (RegexUnion (RegexPlus (Str2Reg "WWW")) (RegexStar (Str2Reg "XXXX"))))))))))) (RegexUnion (RegexPlus (RegexPlus (RegexPlus (RegexStar (RegexStar (RegexUnion (RegexUnion (RegexUnion (RegexPlus (Str2Reg "YY")) (RegexStar (Str2Reg "ZZZZZ"))) (RegexPlus (RegexUnion (Str2Reg "!!!!!") (Str2Reg "\"\"")))) (RegexStar (RegexPlus (RegexPlus (Str2Reg "#####")))))))))) (RegexUnion (RegexPlus (RegexPlus (RegexUnion (RegexStar (RegexStar (RegexUnion (RegexStar (RegexPlus (Str2Reg "$$"))) (RegexPlus (RegexUnion (Str2Reg "%%%%%") (Str2Reg "&&")))))) (RegexPlus (RegexStar (RegexUnion (RegexPlus (RegexPlus (Str2Reg "''"))) (RegexStar (RegexUnion (Str2Reg "((((") (Str2Reg "))))"))))))))) (RegexStar (RegexPlus (RegexStar (RegexPlus (RegexPlus (RegexStar (RegexStar (RegexStar (Str2Reg "**")))))))))))) (RegexStar (RegexStar (RegexUnion (RegexPlus (RegexStar (RegexPlus (RegexStar (RegexStar (RegexStar (RegexPlus (RegexUnion (Str2Reg "++") (Str2Reg ",,,,"))))))))) (RegexUnion (RegexStar (RegexStar (RegexUnion (RegexPlus (RegexUnion (RegexPlus (RegexPlus (Str2Reg "----"))) (RegexUnion (RegexStar (Str2Reg "...")) (RegexUnion (Str2Reg "////") (Str2Reg ":::"))))) (RegexStar (RegexPlus (RegexPlus (RegexStar (Str2Reg ";;;;")))))))) (RegexPlus (RegexStar (RegexPlus (RegexUnion (RegexUnion (RegexStar (RegexUnion (Str2Reg "<<<<") (Str2Reg "===="))) (RegexStar (RegexStar (Str2Reg ">>>>")))) (RegexStar (RegexUnion (RegexStar (Str2Reg "??")) (RegexPlus (Str2Reg "@@@@")))))))))))))) (RegexUnion (RegexStar (RegexUnion (RegexStar (RegexPlus (RegexStar (RegexUnion (RegexPlus (RegexStar (RegexStar (RegexUnion (RegexUnion (RegexUnion (Str2Reg "[[") (Str2Reg "\\\\\\\\\\")) (RegexUnion (Str2Reg "]]]]") (Str2Reg "^^^^"))) (RegexUnion (RegexUnion (Str2Reg "___") (Str2Reg "```")) (RegexPlus (Str2Reg "{{"))))))) (RegexPlus (RegexUnion (RegexPlus (RegexStar (RegexUnion (RegexPlus (Str2Reg "||")) (RegexUnion (Str2Reg "}}}") (Str2Reg "~~~~~"))))) (RegexStar (RegexUnion (RegexPlus (RegexStar (Str2Reg "000"))) (RegexStar (RegexUnion (Str2Reg "11") (Str2Reg "22"))))))))))) (RegexStar (RegexStar (RegexStar (RegexUnion (RegexPlus (RegexUnion (RegexPlus (RegexPlus (RegexStar (RegexPlus (Str2Reg "3333"))))) (RegexStar (RegexStar (RegexUnion (RegexStar (Str2Reg "444")) (RegexPlus (Str2Reg "55"))))))) (RegexUnion (RegexPlus (RegexUnion (RegexUnion (RegexUnion (RegexStar (Str2Reg "6666")) (RegexPlus (Str2Reg "7777"))) (RegexStar (RegexUnion (Str2Reg "8888") (Str2Reg "99999")))) (RegexUnion (RegexPlus (RegexStar (Str2Reg "aaaaa"))) (RegexPlus (RegexStar (Str2Reg "bbbbb")))))) (RegexUnion (RegexStar (RegexUnion (RegexPlus (RegexStar (Str2Reg "ccc"))) (RegexStar (RegexUnion (Str2Reg "dddd") (Str2Reg "eeee"))))) (RegexPlus (RegexPlus (RegexUnion (RegexUnion (Str2Reg "ffff") (Str2Reg "ggg")) (RegexPlus (Str2Reg "hhh"))))))))))))) (RegexStar (RegexPlus (RegexUnion (RegexPlus (RegexStar (RegexPlus (RegexUnion (RegexStar (RegexPlus (RegexStar (RegexPlus (RegexStar (Str2Reg "ii")))))) (RegexStar (RegexPlus (RegexUnion (RegexUnion (RegexUnion (Str2Reg "jjjjj") (Str2Reg "kkkkk")) (RegexPlus (Str2Reg "ll"))) (RegexPlus (RegexStar (Str2Reg "mm")))))))))) (RegexPlus (RegexUnion (RegexStar (RegexPlus (RegexUnion (RegexStar (RegexStar (RegexUnion (RegexPlus (Str2Reg "nnn")) (RegexUnion (Str2Reg "ooo") (Str2Reg "pppp"))))) (RegexUnion (RegexUnion (RegexPlus (RegexUnion (Str2Reg "qqqq") (Str2Reg "rrrr"))) (RegexUnion (RegexUnion (Str2Reg "sss") (Str2Reg "ttt")) (RegexStar (Str2Reg "uuuu")))) (RegexPlus (RegexPlus (RegexUnion (Str2Reg "vvvv") (Str2Reg "ww")))))))) (RegexUnion (RegexPlus (RegexStar (RegexUnion (RegexUnion (RegexUnion (RegexUnion (Str2Reg "xxx") (Str2Reg "yyy")) (RegexUnion (Str2Reg "zzz") (Str2Reg "AAAA"))) (RegexPlus (RegexPlus (Str2Reg "BBBBB")))) (RegexStar (RegexPlus (RegexUnion (Str2Reg "CC") (Str2Reg "DDDDD"))))))) (RegexStar (RegexUnion (RegexStar (RegexUnion (RegexStar (RegexStar (Str2Reg "EEEE"))) (RegexPlus (RegexPlus (Str2Reg "FFF"))))) (RegexPlus (RegexStar (RegexUnion (RegexStar (Str2Reg "GGGG")) (RegexPlus (Str2Reg "HHHH"))))))))))))))))))) (RegexUnion (RegexStar (RegexPlus (RegexPlus (RegexStar (RegexPlus (RegexStar (RegexUnion (RegexStar (RegexStar (RegexPlus (RegexUnion (RegexPlus (RegexStar (RegexUnion (RegexUnion (RegexUnion (RegexUnion (Str2Reg "00000") (Str2Reg "1111")) (RegexPlus (Str2Reg "2222"))) (RegexPlus (RegexStar (Str2Reg "33333")))) (RegexUnion (RegexUnion (RegexStar (Str2Reg "44")) (RegexStar (Str2Reg "555"))) (RegexUnion (RegexUnion (Str2Reg "66") (Str2Reg "777")) (RegexUnion (Str2Reg "888") (Str2Reg "999"))))))) (RegexPlus (RegexUnion (RegexUnion (RegexPlus (RegexStar (RegexUnion (Str2Reg "aaaaa") (Str2Reg "bbb")))) (RegexStar (RegexPlus (RegexStar (Str2Reg "cc"))))) (RegexUnion (RegexPlus (RegexUnion (RegexPlus (Str2Reg "dd")) (RegexUnion (Str2Reg "ee") (Str2Reg "fffff")))) (RegexStar (RegexPlus (RegexUnion (Str2Reg "ggggg") (Str2Reg "hh"))))))))))) (RegexUnion (RegexStar (RegexPlus (RegexStar (RegexPlus (RegexStar (RegexPlus (RegexStar (RegexStar (RegexUnion (Str2Reg "iiii") (Str2Reg "jjjj")))))))))) (RegexUnion (RegexUnion (RegexPlus (RegexStar (RegexUnion (RegexUnion (RegexStar (RegexUnion (RegexStar (Str2Reg "kkk")) (RegexUnion (Str2Reg "lll") (Str2Reg "mmm")))) (RegexUnion (RegexUnion (RegexUnion (Str2Reg "nnnn") (Str2Reg "ooooo")) (RegexPlus (Str2Reg "pppp"))) (RegexPlus (RegexStar (Str2Reg "qqqq"))))) (RegexPlus (RegexStar (RegexStar (RegexUnion (Str2Reg "rr") (Str2Reg "sssss")))))))) (RegexStar (RegexStar (RegexPlus (RegexStar (RegexUnion (RegexUnion (RegexUnion (Str2Reg "tttt") (Str2Reg "uuu")) (RegexPlus (Str2Reg "vvv"))) (RegexUnion (RegexPlus (Str2Reg "wwwww")) (RegexStar (Str2Reg "xxx"))))))))) (RegexUnion (RegexPlus (RegexStar (RegexPlus (RegexUnion (RegexPlus (RegexStar (RegexStar (Str2Reg "yyy")))) (RegexStar (RegexUnion (RegexPlus (Str2Reg "zzzz")) (RegexUnion (Str2Reg "AAAAA") (Str2Reg "BBBB")))))))) (RegexUnion (RegexPlus (RegexStar (RegexUnion (RegexPlus (RegexPlus (RegexUnion (Str2Reg "CCCCC") (Str2Reg "DDDD")))) (RegexPlus (RegexStar (RegexStar (Str2Reg "EEE"))))))) (RegexPlus (RegexUnion (RegexUnion (RegexStar (RegexStar (RegexUnion (Str2Reg "FFFF") (Str2Reg "GGGG")))) (RegexUnion (RegexPlus (RegexStar (Str2Reg "HHH"))) (RegexUnion (RegexUnion (Str2Reg "IIIII") (Str2Reg "JJJJJ")) (RegexStar (Str2Reg "KKK"))))) (RegexPlus (RegexStar (RegexPlus (RegexPlus (Str2Reg "LLLL")))))))))))))))))) (RegexPlus (RegexStar (RegexPlus (RegexPlus (RegexPlus (RegexStar (RegexUnion (RegexUnion (RegexPlus (RegexStar (RegexPlus (RegexUnion (RegexUnion (RegexPlus (RegexUnion (RegexStar (RegexStar (Str2Reg "MMMM"))) (RegexPlus (RegexUnion (Str2Reg "NNN") (Str2Reg "OOOOO"))))) (RegexPlus (RegexStar (RegexUnion (RegexStar (Str2Reg "PP")) (RegexPlus (Str2Reg "QQ")))))) (RegexStar (RegexPlus (RegexStar (RegexUnion (RegexStar (Str2Reg "RRRRR")) (RegexPlus (Str2Reg "SSS")))))))))) (RegexUnion (RegexUnion (RegexStar (RegexUnion (RegexPlus (RegexStar (RegexStar (RegexUnion (RegexUnion (Str2Reg "TTTTT") (Str2Reg "UU")) (RegexUnion (Str2Reg "VVVVV") (Str2Reg "WW")))))) (RegexUnion (RegexPlus (RegexPlus (RegexUnion (RegexUnion (Str2Reg "XXXXX") (Str2Reg "YY")) (RegexUnion (Str2Reg "ZZZZ") (Str2Reg "!!!!"))))) (RegexPlus (RegexUnion (RegexPlus (RegexStar (Str2Reg "\"\"\"\""))) (RegexPlus (RegexUnion (Str2Reg "###") (Str2Reg "$$$$")))))))) (RegexStar (RegexStar (RegexStar (RegexPlus (RegexStar (RegexStar (RegexStar (Str2Reg "%%%%"))))))))) (RegexPlus (RegexUnion (RegexStar (RegexStar (RegexUnion (RegexUnion (RegexUnion (RegexPlus (Str2Reg "&&&")) (RegexPlus (Str2Reg "'''"))) (RegexStar (RegexStar (Str2Reg "(((((")))) (RegexPlus (RegexPlus (RegexStar (Str2Reg "))"))))))) (RegexPlus (RegexUnion (RegexPlus (RegexStar (RegexStar (RegexUnion (Str2Reg "****") (Str2Reg "+++++"))))) (RegexStar (RegexStar (RegexPlus (RegexUnion (Str2Reg ",,") (Str2Reg "-----"))))))))))) (RegexUnion (RegexPlus (RegexUnion (RegexPlus (RegexUnion (RegexPlus (RegexPlus (RegexPlus (RegexStar (RegexPlus (Str2Reg "..")))))) (RegexStar (RegexStar (RegexPlus (RegexStar (RegexUnion (Str2Reg "/////") (Str2Reg "::")))))))) (RegexStar (RegexStar (RegexStar (RegexUnion (RegexStar (RegexPlus (RegexPlus (Str2Reg ";;")))) (RegexPlus (RegexStar (RegexStar (Str2Reg "<<")))))))))) (RegexStar (RegexPlus (RegexPlus (RegexStar (RegexUnion (RegexStar (RegexUnion (RegexPlus (RegexUnion (Str2Reg "==") (Str2Reg ">>"))) (RegexUnion (RegexPlus (Str2Reg "??")) (RegexUnion (Str2Reg "@@@") (Str2Reg "[[[[["))))) (RegexStar (RegexPlus (RegexStar (RegexUnion (Str2Reg "\\\\\\\\\\") (Str2Reg "]]]"))))))))))))))))))))))
(assert (<= 15 (Length var0)))
(check-sat)